jobs  (incl. supersource/sink ):	52
RESOURCES
- renewable                 : 4 R
- nonrenewable              : 4 N
- doubly constrained        : 0 D
************************************************************************
PRECEDENCE RELATIONS:
jobnr.    #modes  #successors   successors
1	1	1		2 
2	9	1		3 
3	9	3		6 5 4 
4	9	2		8 7 
5	9	7		23 22 21 17 12 11 10 
6	9	7		23 22 21 17 14 12 10 
7	9	5		23 22 21 11 9 
8	9	5		22 21 14 12 10 
9	9	5		20 16 15 14 13 
10	9	4		20 16 15 13 
11	9	3		24 16 14 
12	9	3		20 19 16 
13	9	3		28 24 18 
14	9	3		32 25 18 
15	9	3		31 28 19 
16	9	5		29 28 27 26 25 
17	9	5		33 31 30 27 24 
18	9	2		31 19 
19	9	4		30 29 27 26 
20	9	4		33 32 30 25 
21	9	4		33 32 26 25 
22	9	4		33 30 27 25 
23	9	5		36 33 32 31 30 
24	9	2		32 26 
25	9	4		39 36 35 31 
26	9	5		39 38 36 35 34 
27	9	6		42 41 39 38 36 35 
28	9	6		42 41 39 38 36 35 
29	9	3		39 34 33 
30	9	6		43 42 39 38 37 35 
31	9	5		51 43 40 38 34 
32	9	5		43 42 38 37 35 
33	9	4		43 40 38 37 
34	9	5		48 46 42 41 37 
35	9	6		51 50 49 48 44 40 
36	9	5		48 47 46 43 37 
37	9	4		50 49 45 44 
38	9	4		48 46 45 44 
39	9	4		51 46 45 44 
40	9	3		47 46 45 
41	9	3		47 45 44 
42	9	2		47 44 
43	9	1		44 
44	9	1		52 
45	9	1		52 
46	9	1		52 
47	9	1		52 
48	9	1		52 
49	9	1		52 
50	9	1		52 
51	9	1		52 
52	1	0		
************************************************************************
REQUESTS/DURATIONS
jobnr.	mode	dur	R1	R2	R3	R4	N1	N2	N3	N4	
------------------------------------------------------------------------
1	1	0	0	0	0	0	0	0	0	0	
2	1	2	4	3	4	2	21	24	14	5	
	2	9	4	2	4	2	19	21	13	4	
	3	12	4	2	4	2	19	20	12	3	
	4	16	4	2	4	2	17	16	11	3	
	5	19	4	2	4	1	16	13	11	3	
	6	22	4	1	4	1	16	12	10	2	
	7	23	4	1	4	1	15	7	10	2	
	8	25	4	1	4	1	14	5	9	1	
	9	26	4	1	4	1	12	2	9	1	
3	1	1	4	4	3	3	16	30	27	22	
	2	3	4	3	3	3	15	26	26	22	
	3	7	4	3	3	3	15	23	23	21	
	4	10	4	3	3	3	14	21	18	20	
	5	18	4	2	3	3	12	18	17	18	
	6	19	4	2	3	2	11	16	13	18	
	7	20	4	2	3	2	11	15	11	16	
	8	22	4	1	3	2	10	11	9	15	
	9	26	4	1	3	2	8	10	6	15	
4	1	3	3	3	2	5	12	21	26	7	
	2	6	3	3	2	4	11	20	21	6	
	3	8	3	3	2	4	9	20	20	6	
	4	9	3	2	2	4	9	20	19	6	
	5	13	3	2	2	3	8	20	13	5	
	6	20	3	2	2	3	7	20	12	5	
	7	24	3	1	2	2	6	20	9	5	
	8	25	3	1	2	2	6	20	7	5	
	9	26	3	1	2	2	5	20	5	5	
5	1	7	4	2	4	3	20	6	8	24	
	2	8	3	2	4	3	18	6	8	20	
	3	11	3	2	4	3	17	6	8	20	
	4	15	3	2	4	3	16	6	8	15	
	5	16	2	1	3	3	16	6	8	13	
	6	21	2	1	3	2	14	6	8	12	
	7	24	2	1	3	2	14	6	8	10	
	8	26	1	1	2	2	12	6	8	7	
	9	28	1	1	2	2	12	6	8	2	
6	1	1	2	2	4	5	14	30	27	22	
	2	2	2	2	4	4	14	29	26	21	
	3	8	2	2	4	4	12	28	25	20	
	4	16	2	2	3	3	12	28	25	18	
	5	25	2	2	3	3	10	27	23	17	
	6	26	1	2	2	2	8	26	21	14	
	7	27	1	2	2	1	8	26	20	12	
	8	28	1	2	1	1	6	24	18	11	
	9	29	1	2	1	1	5	24	18	11	
7	1	6	3	1	4	5	17	10	20	21	
	2	10	3	1	3	4	16	8	20	19	
	3	11	3	1	3	4	16	8	20	18	
	4	15	3	1	3	4	15	7	19	17	
	5	16	3	1	3	4	13	6	19	15	
	6	17	3	1	3	4	13	4	18	12	
	7	18	3	1	3	4	11	4	18	10	
	8	26	3	1	3	4	11	2	17	8	
	9	30	3	1	3	4	10	2	17	7	
8	1	1	3	3	3	3	13	13	28	8	
	2	3	3	3	2	3	12	12	25	8	
	3	8	3	3	2	3	12	12	23	7	
	4	10	3	3	2	3	10	11	21	7	
	5	11	2	3	2	3	10	10	20	7	
	6	12	2	3	2	3	8	10	16	6	
	7	13	2	3	2	3	7	10	15	5	
	8	24	2	3	2	3	6	9	12	5	
	9	30	2	3	2	3	6	8	11	5	
9	1	3	1	4	5	3	17	23	28	25	
	2	10	1	3	4	3	16	22	27	24	
	3	11	1	3	4	3	15	21	25	22	
	4	13	1	3	4	3	13	19	23	20	
	5	18	1	2	4	3	13	14	21	20	
	6	21	1	2	3	3	12	12	21	19	
	7	26	1	1	3	3	11	12	19	16	
	8	27	1	1	3	3	11	8	17	15	
	9	30	1	1	3	3	10	8	16	13	
10	1	1	4	3	5	4	25	21	30	16	
	2	8	4	3	4	3	24	21	26	15	
	3	9	4	3	4	3	23	21	24	13	
	4	10	3	3	4	3	20	21	22	10	
	5	11	3	3	4	3	18	21	17	9	
	6	18	3	3	4	3	15	21	17	6	
	7	24	2	3	4	3	13	21	13	5	
	8	25	2	3	4	3	13	21	10	4	
	9	28	2	3	4	3	10	21	7	1	
11	1	1	2	2	4	2	10	23	27	19	
	2	2	2	2	4	1	8	22	26	15	
	3	4	2	2	4	1	7	21	25	15	
	4	7	2	2	3	1	6	17	25	11	
	5	8	2	1	3	1	6	17	24	10	
	6	14	1	1	2	1	4	13	24	8	
	7	15	1	1	2	1	3	10	24	6	
	8	16	1	1	1	1	2	9	23	6	
	9	17	1	1	1	1	2	8	23	4	
12	1	4	4	4	1	3	12	13	15	27	
	2	5	4	4	1	2	10	11	15	27	
	3	6	4	4	1	2	9	9	15	24	
	4	11	4	4	1	2	8	8	15	23	
	5	17	3	4	1	2	7	7	15	20	
	6	18	3	4	1	2	6	6	15	20	
	7	19	2	4	1	2	6	5	15	17	
	8	21	2	4	1	2	5	4	15	15	
	9	23	2	4	1	2	4	3	15	15	
13	1	3	2	3	4	2	22	29	9	22	
	2	14	1	3	4	2	22	24	9	20	
	3	15	1	3	4	2	20	23	8	19	
	4	16	1	3	4	2	20	21	8	18	
	5	19	1	3	4	2	19	18	7	15	
	6	20	1	3	3	2	18	16	6	14	
	7	27	1	3	3	2	16	15	5	13	
	8	28	1	3	3	2	15	13	5	12	
	9	29	1	3	3	2	14	11	4	10	
14	1	6	4	4	4	3	24	28	23	20	
	2	7	4	4	3	2	21	26	22	19	
	3	10	4	4	3	2	20	25	21	18	
	4	15	4	4	3	2	19	24	21	18	
	5	16	3	4	3	1	15	24	20	17	
	6	17	3	3	3	1	12	22	19	16	
	7	19	3	3	3	1	9	22	18	15	
	8	29	2	3	3	1	7	20	16	13	
	9	30	2	3	3	1	4	20	16	12	
15	1	1	4	5	5	4	28	17	20	13	
	2	3	4	4	5	3	28	16	18	13	
	3	7	4	4	5	3	28	15	16	12	
	4	16	4	4	5	3	27	15	13	11	
	5	17	3	4	5	3	27	15	12	10	
	6	18	3	4	5	3	27	14	8	8	
	7	19	3	4	5	3	26	13	8	8	
	8	20	3	4	5	3	26	13	6	7	
	9	27	3	4	5	3	26	13	4	5	
16	1	3	2	2	1	5	24	18	13	13	
	2	10	2	2	1	4	24	17	11	12	
	3	11	2	2	1	4	23	17	11	12	
	4	12	2	2	1	3	21	17	9	11	
	5	13	2	2	1	3	21	17	9	10	
	6	17	2	2	1	2	21	17	9	9	
	7	20	2	2	1	2	19	17	7	7	
	8	21	2	2	1	1	19	17	7	6	
	9	26	2	2	1	1	18	17	6	5	
17	1	3	1	2	5	4	23	20	25	15	
	2	4	1	2	4	3	20	20	25	11	
	3	10	1	2	4	3	16	20	19	10	
	4	13	1	2	4	3	15	19	18	9	
	5	14	1	1	4	2	13	18	14	7	
	6	15	1	1	4	2	10	18	13	5	
	7	20	1	1	4	2	5	17	7	5	
	8	22	1	1	4	2	5	17	4	4	
	9	30	1	1	4	2	1	17	3	2	
18	1	3	3	3	1	3	3	5	24	22	
	2	9	2	3	1	3	2	5	23	21	
	3	12	2	3	1	3	2	5	21	19	
	4	13	2	3	1	2	2	5	21	19	
	5	14	2	3	1	2	2	4	19	18	
	6	19	2	3	1	2	2	4	19	17	
	7	24	2	3	1	2	2	4	17	16	
	8	29	2	3	1	1	2	4	17	15	
	9	30	2	3	1	1	2	4	15	14	
19	1	6	4	5	4	3	8	5	8	26	
	2	8	4	4	4	2	7	4	7	22	
	3	14	4	4	4	2	7	4	6	22	
	4	18	4	3	4	2	7	4	5	20	
	5	20	3	3	4	2	7	3	5	18	
	6	21	3	3	4	2	6	3	4	17	
	7	24	3	2	4	2	6	3	4	14	
	8	25	3	2	4	2	6	3	4	13	
	9	29	3	2	4	2	6	3	3	11	
20	1	2	2	3	5	4	6	23	25	17	
	2	4	1	3	4	4	6	20	23	16	
	3	6	1	3	4	4	5	20	21	13	
	4	7	1	2	4	3	5	19	18	11	
	5	8	1	2	4	2	4	17	16	9	
	6	19	1	2	4	2	3	16	15	7	
	7	20	1	1	4	2	3	15	14	6	
	8	21	1	1	4	1	3	13	11	4	
	9	22	1	1	4	1	2	12	9	2	
21	1	1	2	4	2	3	20	11	22	8	
	2	5	2	4	2	2	19	11	21	8	
	3	6	2	3	2	2	17	11	19	8	
	4	8	2	3	2	2	14	11	16	8	
	5	14	2	2	2	2	14	11	16	8	
	6	15	2	2	2	2	11	11	13	8	
	7	21	2	1	2	2	9	11	12	8	
	8	25	2	1	2	2	7	11	11	8	
	9	28	2	1	2	2	7	11	10	8	
22	1	2	4	2	1	4	25	12	22	26	
	2	8	3	1	1	4	23	10	22	26	
	3	10	3	1	1	3	20	9	21	24	
	4	11	3	1	1	3	19	8	20	23	
	5	14	2	1	1	3	16	7	20	22	
	6	18	2	1	1	2	15	7	19	22	
	7	19	2	1	1	2	15	5	19	20	
	8	23	2	1	1	1	12	5	18	19	
	9	28	2	1	1	1	11	4	18	19	
23	1	4	3	3	3	2	5	27	27	25	
	2	5	2	2	3	2	4	26	26	23	
	3	6	2	2	3	2	4	24	25	22	
	4	10	2	2	3	2	3	24	23	20	
	5	13	2	2	2	2	3	22	23	19	
	6	17	2	2	2	2	3	22	21	17	
	7	21	2	2	2	2	3	20	20	16	
	8	22	2	2	2	2	2	19	19	13	
	9	24	2	2	2	2	2	18	19	12	
24	1	7	4	4	4	4	28	21	25	11	
	2	8	3	4	3	3	27	20	23	10	
	3	9	3	4	3	3	27	19	21	9	
	4	10	3	4	3	3	27	18	19	9	
	5	23	3	4	2	2	26	17	19	6	
	6	26	3	4	2	2	26	17	16	5	
	7	27	3	4	1	2	25	17	16	5	
	8	28	3	4	1	1	25	16	13	3	
	9	29	3	4	1	1	25	15	13	1	
25	1	3	5	4	4	1	9	19	24	4	
	2	4	4	4	3	1	9	18	23	3	
	3	9	4	4	3	1	7	16	21	3	
	4	16	4	4	3	1	6	16	20	3	
	5	19	3	4	3	1	5	15	19	3	
	6	20	3	4	3	1	5	14	18	3	
	7	25	3	4	3	1	3	14	17	3	
	8	27	3	4	3	1	3	12	17	3	
	9	28	3	4	3	1	2	12	16	3	
26	1	5	4	3	3	2	29	25	21	17	
	2	8	4	3	3	2	26	24	18	16	
	3	9	4	3	3	2	24	23	18	14	
	4	10	4	3	3	2	24	23	15	13	
	5	12	3	2	3	2	22	23	14	13	
	6	17	3	2	3	1	19	22	12	11	
	7	18	3	2	3	1	19	22	10	11	
	8	23	3	2	3	1	16	21	9	9	
	9	30	3	2	3	1	15	21	7	8	
27	1	4	1	2	3	2	26	12	14	27	
	2	6	1	2	2	1	25	11	14	24	
	3	10	1	2	2	1	23	10	13	23	
	4	11	1	2	2	1	20	10	12	19	
	5	13	1	1	2	1	18	10	10	16	
	6	17	1	1	2	1	17	9	8	11	
	7	22	1	1	2	1	17	8	7	11	
	8	23	1	1	2	1	14	8	7	8	
	9	29	1	1	2	1	12	8	6	2	
28	1	1	4	1	4	5	22	6	26	16	
	2	8	4	1	4	5	20	6	25	15	
	3	9	4	1	4	5	19	5	19	15	
	4	10	4	1	3	5	18	5	17	14	
	5	11	4	1	3	5	16	4	16	14	
	6	14	3	1	3	5	14	3	13	14	
	7	20	3	1	3	5	12	2	9	13	
	8	22	3	1	2	5	11	2	7	13	
	9	25	3	1	2	5	8	1	2	13	
29	1	1	5	3	4	4	24	23	23	27	
	2	4	4	3	4	4	23	20	21	27	
	3	6	4	3	4	4	23	18	20	25	
	4	9	3	3	4	4	23	16	17	23	
	5	10	2	3	4	4	23	15	15	21	
	6	12	2	2	3	4	22	11	15	20	
	7	23	2	2	3	4	22	9	12	18	
	8	24	1	2	3	4	22	7	11	17	
	9	28	1	2	3	4	22	7	10	16	
30	1	4	4	3	3	3	27	23	19	25	
	2	5	4	2	3	3	26	22	17	23	
	3	8	4	2	3	3	23	21	17	23	
	4	9	4	2	3	3	22	21	15	22	
	5	10	4	2	2	3	21	20	14	21	
	6	16	4	2	2	3	18	20	14	20	
	7	20	4	2	1	3	16	20	13	19	
	8	21	4	2	1	3	13	19	12	17	
	9	24	4	2	1	3	12	19	10	17	
31	1	12	4	3	2	4	24	21	27	18	
	2	13	4	2	2	3	21	18	25	18	
	3	17	4	2	2	3	20	17	20	16	
	4	18	4	2	2	3	16	16	20	15	
	5	19	4	2	2	2	16	13	16	15	
	6	20	3	2	2	2	14	12	11	13	
	7	22	3	2	2	1	12	9	9	13	
	8	25	3	2	2	1	9	6	5	12	
	9	30	3	2	2	1	6	6	3	10	
32	1	2	4	5	4	3	27	8	22	10	
	2	3	4	5	3	2	26	8	21	10	
	3	7	3	5	3	2	25	8	19	8	
	4	10	3	5	3	2	23	8	18	7	
	5	11	2	5	2	2	22	8	17	6	
	6	14	2	5	2	2	22	8	15	5	
	7	17	2	5	2	2	21	8	13	3	
	8	18	1	5	1	2	20	8	11	2	
	9	23	1	5	1	2	19	8	11	2	
33	1	4	2	3	4	3	27	27	24	12	
	2	6	2	2	4	2	24	26	22	10	
	3	11	2	2	4	2	23	26	22	10	
	4	12	2	2	4	2	20	25	20	8	
	5	18	2	2	3	2	18	25	16	8	
	6	19	2	2	3	1	18	24	16	7	
	7	27	2	2	3	1	15	23	12	5	
	8	28	2	2	3	1	14	23	11	4	
	9	29	2	2	3	1	10	23	10	3	
34	1	9	5	4	1	3	29	24	18	26	
	2	20	4	4	1	3	28	23	16	25	
	3	23	3	4	1	3	28	23	14	24	
	4	25	3	4	1	3	28	23	13	23	
	5	26	2	4	1	3	27	23	12	23	
	6	27	2	4	1	3	26	23	12	21	
	7	28	2	4	1	3	26	23	11	20	
	8	29	1	4	1	3	25	23	9	18	
	9	30	1	4	1	3	24	23	8	17	
35	1	5	3	3	4	4	28	15	20	24	
	2	6	3	3	4	3	24	15	16	23	
	3	11	3	3	4	3	22	13	15	22	
	4	17	2	3	4	3	20	13	12	21	
	5	18	2	3	4	3	18	10	10	20	
	6	19	2	3	3	3	16	9	8	18	
	7	21	1	3	3	3	13	8	6	17	
	8	22	1	3	3	3	9	7	4	15	
	9	23	1	3	3	3	7	6	3	14	
36	1	3	2	5	3	4	25	15	21	6	
	2	7	1	4	2	3	21	14	20	6	
	3	11	1	4	2	3	18	14	20	6	
	4	15	1	3	2	3	17	14	19	5	
	5	22	1	3	1	2	15	13	18	4	
	6	23	1	3	1	2	13	13	18	4	
	7	24	1	2	1	1	10	13	17	4	
	8	25	1	2	1	1	7	12	17	3	
	9	26	1	2	1	1	6	12	17	3	
37	1	1	5	4	1	5	3	10	21	22	
	2	2	4	4	1	4	3	10	18	21	
	3	4	4	4	1	4	3	10	18	19	
	4	5	3	4	1	3	3	9	17	18	
	5	8	2	4	1	3	2	8	14	18	
	6	20	2	4	1	2	2	8	14	16	
	7	22	2	4	1	1	2	7	13	15	
	8	26	1	4	1	1	1	7	12	13	
	9	27	1	4	1	1	1	7	11	12	
38	1	1	3	4	5	5	19	20	17	27	
	2	9	3	4	4	5	16	19	17	24	
	3	16	3	4	3	5	14	19	17	21	
	4	17	3	3	3	5	14	19	16	20	
	5	21	3	3	2	5	11	18	16	17	
	6	22	3	3	2	5	11	18	16	15	
	7	26	3	3	1	5	7	18	15	12	
	8	27	3	2	1	5	5	18	15	9	
	9	28	3	2	1	5	4	18	15	6	
39	1	2	4	1	2	2	28	25	17	20	
	2	3	3	1	2	2	25	24	16	18	
	3	7	3	1	2	2	23	23	15	14	
	4	9	3	1	2	2	20	22	14	14	
	5	14	3	1	2	2	18	22	14	10	
	6	15	3	1	2	2	15	21	13	8	
	7	22	3	1	2	2	12	21	12	8	
	8	24	3	1	2	2	11	19	12	6	
	9	30	3	1	2	2	9	19	11	3	
40	1	5	3	2	4	1	24	7	28	21	
	2	6	3	2	4	1	20	6	27	19	
	3	12	3	2	4	1	19	5	26	18	
	4	17	3	2	4	1	17	5	26	17	
	5	19	3	2	3	1	15	4	25	15	
	6	20	3	1	3	1	12	4	25	12	
	7	21	3	1	2	1	12	3	25	10	
	8	22	3	1	2	1	8	3	24	8	
	9	24	3	1	2	1	8	3	24	7	
41	1	7	4	4	5	5	14	20	27	30	
	2	9	4	4	4	4	13	20	25	29	
	3	11	4	4	4	4	12	20	22	29	
	4	13	3	4	3	3	10	20	21	29	
	5	22	2	4	3	2	9	20	20	29	
	6	25	2	4	3	2	7	20	17	29	
	7	28	2	4	2	1	7	20	15	29	
	8	29	1	4	2	1	4	20	12	29	
	9	30	1	4	2	1	4	20	10	29	
42	1	4	4	3	4	5	17	24	8	20	
	2	5	4	2	4	4	14	24	7	20	
	3	7	4	2	3	4	12	23	7	20	
	4	8	4	2	3	4	11	23	7	20	
	5	12	3	2	3	4	9	23	6	20	
	6	13	3	2	2	4	8	22	6	20	
	7	14	3	2	2	4	8	22	6	19	
	8	18	3	2	1	4	5	21	6	20	
	9	21	3	2	1	4	4	21	6	20	
43	1	2	4	5	2	3	13	20	29	28	
	2	4	4	4	2	2	12	20	27	24	
	3	5	3	4	2	2	11	18	25	22	
	4	13	3	4	2	2	11	16	22	20	
	5	17	2	4	1	2	8	14	20	15	
	6	19	2	3	1	2	7	10	20	13	
	7	21	2	3	1	2	6	9	16	10	
	8	22	1	3	1	2	6	6	16	6	
	9	28	1	3	1	2	4	6	13	6	
44	1	7	4	5	2	2	12	7	26	4	
	2	8	4	5	2	2	12	5	23	3	
	3	9	4	5	2	2	12	5	22	3	
	4	10	4	5	2	2	11	5	20	3	
	5	11	3	5	2	2	11	4	16	3	
	6	13	3	5	2	1	11	3	14	3	
	7	14	3	5	2	1	11	3	11	3	
	8	15	2	5	2	1	10	2	7	3	
	9	20	2	5	2	1	10	2	3	3	
45	1	3	4	3	5	4	16	28	21	22	
	2	8	4	2	4	4	15	27	21	20	
	3	12	4	2	4	4	13	27	18	18	
	4	15	4	2	4	3	12	26	16	16	
	5	16	4	2	3	3	10	24	13	15	
	6	20	4	2	3	3	10	24	10	12	
	7	22	4	2	3	3	8	22	8	9	
	8	23	4	2	2	2	8	21	8	8	
	9	28	4	2	2	2	6	21	5	4	
46	1	1	4	3	3	4	11	28	30	22	
	2	4	4	3	2	4	10	26	27	20	
	3	9	4	3	2	4	10	25	25	20	
	4	12	3	2	2	4	9	25	21	19	
	5	15	3	2	2	3	8	23	18	17	
	6	19	3	2	1	3	7	20	15	16	
	7	22	2	1	1	3	6	19	15	16	
	8	24	2	1	1	3	4	18	12	14	
	9	25	2	1	1	3	4	16	9	13	
47	1	1	4	4	4	3	8	17	26	24	
	2	2	4	4	3	3	7	17	26	23	
	3	6	4	4	3	3	6	15	24	22	
	4	9	4	4	3	3	6	15	23	19	
	5	15	3	4	3	3	6	13	23	16	
	6	16	3	3	2	3	5	12	23	12	
	7	20	3	3	2	3	4	11	22	12	
	8	21	3	3	2	3	4	11	20	7	
	9	30	3	3	2	3	4	10	20	5	
48	1	2	4	5	4	5	23	24	14	16	
	2	7	4	5	4	4	23	24	14	15	
	3	9	4	5	4	4	23	23	14	14	
	4	19	4	5	4	4	23	23	13	14	
	5	20	4	5	3	4	23	22	13	13	
	6	21	3	5	3	4	23	21	13	13	
	7	23	3	5	2	4	23	21	13	12	
	8	26	3	5	2	4	23	21	12	11	
	9	28	3	5	2	4	23	20	12	11	
49	1	1	4	4	2	3	16	8	17	22	
	2	10	3	4	2	2	13	8	16	22	
	3	15	3	4	2	2	13	8	16	21	
	4	17	3	4	2	2	12	8	14	21	
	5	22	2	4	2	2	10	8	14	20	
	6	23	2	4	2	1	10	8	12	19	
	7	25	1	4	2	1	8	8	12	18	
	8	27	1	4	2	1	8	8	10	18	
	9	30	1	4	2	1	7	8	10	17	
50	1	1	4	4	2	5	23	23	5	8	
	2	5	4	3	2	4	22	19	4	7	
	3	8	4	3	2	4	20	18	4	7	
	4	15	4	3	2	3	20	16	4	6	
	5	21	4	3	2	3	17	14	3	6	
	6	22	4	3	2	3	17	14	3	5	
	7	23	4	3	2	3	16	12	3	5	
	8	24	4	3	2	2	15	10	3	5	
	9	29	4	3	2	2	14	7	3	5	
51	1	9	1	4	4	1	16	29	26	22	
	2	10	1	3	3	1	16	28	26	22	
	3	11	1	3	3	1	13	28	26	20	
	4	13	1	3	2	1	13	27	26	20	
	5	15	1	3	2	1	12	27	26	19	
	6	17	1	3	2	1	9	27	25	19	
	7	24	1	3	2	1	9	26	25	17	
	8	25	1	3	1	1	6	26	25	17	
	9	29	1	3	1	1	5	26	25	16	
52	1	0	0	0	0	0	0	0	0	0	
************************************************************************

 RESOURCE AVAILABILITIES 
	R 1	R 2	R 3	R 4	N 1	N 2	N 3	N 4
	17	18	17	20	812	855	931	812

************************************************************************
